\ Model Capital Budgeting Problem with Multi-Period and Interdependencies
\ LP format - for model browsing. Use MPS format to capture full model detail.
Maximize
  1637.9178676879 x[0,0] + 112.3476433883 x[0,1] + 1631.0565784823 x[0,2]
   + 1426.4648504776 x[0,3] + 746.4759813842001 x[0,4]
   + 395.4110496424 x[1,0] + 1918.7048371929 x[1,1]
   + 739.5296357140001 x[1,2] + 276.2171024223 x[1,3]
   + 283.7611159836 x[1,4] + 1710.2392960602 x[2,0]
   + 1247.0794595971 x[2,1] + 1633.5437192213 x[2,2]
   + 1486.4903947183 x[2,3] + 1118.8333737639 x[2,4]
Subject To
 Budget_0: 300.8896643339 x[0,0] + 762.8240927476 x[0,1]
   + 709.0295386806 x[0,2] + 902.9616109344 x[0,3] + 178.2449493665 x[0,4]
   <= 3557.7071938315
 Budget_1: 479.7296377167 x[1,0] + 126.8174974943 x[1,1]
   + 296.7741773232 x[1,2] + 554.8197592929999 x[1,3]
   + 123.8823727155 x[1,4] <= 1100.0430208907
 Budget_2: 278.953885618 x[2,0] + 684.8959940016 x[2,1]
   + 590.4473325429 x[2,2] + 298.3965598366 x[2,3] + 630.3391154883 x[2,4]
   <= 2100.1172734765
 Regulatory_0[0]: x[0,0] <= 0.973115764
 Regulatory_0[1]: x[1,0] <= 0.973115764
 Regulatory_0[2]: x[2,0] <= 0.973115764
 Regulatory_1[0]: x[0,1] <= 0.3785343772
 Regulatory_1[1]: x[1,1] <= 0.3785343772
 Regulatory_1[2]: x[2,1] <= 0.3785343772
 Regulatory_2[0]: x[0,2] <= 0.5520406313
 Regulatory_2[1]: x[1,2] <= 0.5520406313
 Regulatory_2[2]: x[2,2] <= 0.5520406313
 Regulatory_3[0]: x[0,3] <= 0.8294046643
 Regulatory_3[1]: x[1,3] <= 0.8294046643
 Regulatory_3[2]: x[2,3] <= 0.8294046643
 Regulatory_4[0]: x[0,4] <= 0.6185197524
 Regulatory_4[1]: x[1,4] <= 0.6185197524
 Regulatory_4[2]: x[2,4] <= 0.6185197524
 Resource_0[0]: x[0,0] <= 0.8617069003
 Resource_0[1]: x[1,0] <= 0.8617069003
 Resource_0[2]: x[2,0] <= 0.8617069003
 Resource_1[0]: x[0,1] <= 0.5773521453
 Resource_1[1]: x[1,1] <= 0.5773521453
 Resource_1[2]: x[2,1] <= 0.5773521453
 Resource_2[0]: x[0,2] <= 0.7045718362
 Resource_2[1]: x[1,2] <= 0.7045718362
 Resource_2[2]: x[2,2] <= 0.7045718362
 Resource_3[0]: x[0,3] <= 0.0458243837
 Resource_3[1]: x[1,3] <= 0.0458243837
 Resource_3[2]: x[2,3] <= 0.0458243837
 Resource_4[0]: x[0,4] <= 0.2278982757
 Resource_4[1]: x[1,4] <= 0.2278982757
 Resource_4[2]: x[2,4] <= 0.2278982757
 Dependency_1_0_0: - x[0,0] + x[0,1] <= 0
 Dependency_1_0_1: - x[0,0] - x[1,0] + x[1,1] <= 0
 Dependency_1_0_2: - x[0,0] - x[1,0] - x[2,0] + x[2,1] <= 0
 Dependency_3_2_0: - x[0,2] + x[0,3] <= 0
 Dependency_3_2_1: - x[0,2] - x[1,2] + x[1,3] <= 0
 Dependency_3_2_2: - x[0,2] - x[1,2] - x[2,2] + x[2,3] <= 0
 Dependency_1_2_0: x[0,1] - x[0,2] <= 0
 Dependency_1_2_1: - x[0,2] + x[1,1] - x[1,2] <= 0
 Dependency_1_2_2: - x[0,2] - x[1,2] + x[2,1] - x[2,2] <= 0
 Dependency_2_0_0: - x[0,0] + x[0,2] <= 0
 Dependency_2_0_1: - x[0,0] - x[1,0] + x[1,2] <= 0
 Dependency_2_0_2: - x[0,0] - x[1,0] - x[2,0] + x[2,2] <= 0
Bounds
Binaries
 x[0,0] x[0,1] x[0,2] x[0,3] x[0,4] x[1,0] x[1,1] x[1,2] x[1,3] x[1,4]
 x[2,0] x[2,1] x[2,2] x[2,3] x[2,4]
End
